42 50 
22 75 
2 83 
2 67 
12 60 
49 98 
80 27 
98 58 
23 10 
26 38 
60 34 
60 99 
28 76 
26 16 
82 84 
58 77 
34 80 
52 89 
16 54 
8 28 
66 57 
79 46 
37 77 
57 12 
39 83 
2 51 
70 62 
2 50 
90 28 
67 73 
65 77 
2 51 
57 54 
92 25 
60 0 
6 27 
58 85 
25 47 
14 82 
59 5 
18 61 
9 88 
75 11 
90 17 
92 57 
42 57 
86 44 
8 96 
98 1 
21 11 
